NAME : XML100_2275_19
DIMENSION : 101
NB_CLUSTERS : 4
CLUSTERING_ALG : KMeans
CLUSTERING_PARAMS : k(3)
CLUSTERS
1 0
2 6 11 26 29 31 32 34 35 36 40 43 49 57 68 70 72 74 76 77 78 79 81 85 87 93 94 95
3 2 3 5 7 8 9 18 21 22 25 27 28 30 33 38 39 41 44 46 47 51 52 53 54 59 60 62 71 73 75 80 83 84 88 89 92 98 99 100
4 1 4 10 12 13 14 15 16 17 19 20 23 24 37 42 45 48 50 55 56 58 61 63 64 65 66 67 69 82 86 90 91 96 97
EOF